NAME : portcgen-20-25
COMMENT : portcgen N=20, seed=25
TYPE : TSP
DIMENSION : 20
EDGE_WEIGHT_TYPE : EUC_2D
NODE_COORD_SECTION
1 -192790 413565
2 -303337 -355917
3 -26776 -314504
4 -221630 10570
5 76378 -8552
6 -17951 119063
7 -150963 -215974
8 119619 -102261
9 280310 209611
10 63623 -100975
11 715610 41620
12 -378604 -376448
13 86795 117547
14 21824 -121157
15 -239383 -181733
16 134163 243094
17 48561 -262565
18 2645 -133834
19 -83908 -63085
20 60231 -22903
